\ENCODING=ISO-8859-1
\Problem name: nSARP

Maximize
 obj1: - 0.12788 x(0,1,0) - 0.31602 x(0,2,0) - 0.3841 x(0,3,0)
       - 0.19918 x(0,4,0) - 0.51152 x(0,5,0) - 0.31326 x(0,6,0)
       - 0.5152 x(0,7,0) - 0.62882 x(0,8,0) - 0.13754 x(0,9,0)
       - 0.28888 x(0,10,0) - 0.59018 x(0,11,0) - 0.6854 x(0,12,0)
       - 0.18354 x(0,13,0) - 0.3036 x(1,0,0) - 0.27554 x(1,2,0)
       - 0.30728 x(1,3,0) - 0.22586 x(1,4,0) - 0.4347 x(1,5,0)
       - 0.31096 x(1,6,0) - 0.43838 x(1,7,0) - 0.55154 x(1,8,0)
       - 0.16422 x(1,9,0) - 0.2139 x(1,10,0) - 0.51336 x(1,11,0)
       - 0.60858 x(1,12,0) - 0.21022 x(1,13,0) - 0.34684 x(2,0,0)
       - 0.37352 x(2,1,0) - 0.40066 x(2,3,0) - 0.44528 x(2,4,0)
       - 0.4324 x(2,5,0) - 0.53038 x(2,6,0) - 0.31234 x(2,7,0)
       - 0.5497 x(2,8,0) - 0.38364 x(2,9,0) - 0.26956 x(2,10,0)
       - 0.51152 x(2,11,0) - 0.60628 x(2,12,0) - 0.42964 x(2,13,0)
       - 0.14582 x(3,0,0) - 0.20332 x(3,1,0) - 0.4117 x(3,2,0)
       - 0.26358 x(3,4,0) - 0.43056 x(3,5,0) - 0.20516 x(3,6,0)
       - 0.49404 x(3,7,0) - 0.4692 x(3,8,0) - 0.23506 x(3,9,0)
       - 0.22218 x(3,10,0) - 0.50002 x(3,11,0) - 0.54096 x(3,12,0)
       - 0.27416 x(3,13,0) - 0.36202 x(4,0,0) - 0.13386 x(4,1,0)
       - 0.35742 x(4,2,0) - 0.36202 x(4,3,0) - 0.5175 x(4,5,0)
       - 0.28658 x(4,6,0) - 0.52072 x(4,7,0) - 0.63434 x(4,8,0)
       - 0.11086 x(4,9,0) - 0.2967 x(4,10,0) - 0.59616 x(4,11,0)
       - 0.69138 x(4,12,0) - 0.15686 x(4,13,0) - 0.28474 x(5,0,0)
       - 0.44482 x(5,1,0) - 0.59616 x(5,2,0) - 0.28474 x(5,3,0)
       - 0.4853 x(5,4,0) - 0.46598 x(5,6,0) - 0.59938 x(5,7,0)
       - 0.32292 x(5,8,0) - 0.51612 x(5,9,0) - 0.37306 x(5,10,0)
       - 0.4485 x(5,11,0) - 0.42734 x(5,12,0) - 0.53498 x(5,13,0)
       + 1.74616 x(6,0,0) + 1.84874 x(6,1,0) + 1.59896 x(6,2,0)
       + 1.74616 x(6,3,0) + 1.92464 x(6,4,0) + 1.50098 x(6,5,0)
       + 1.52434 x(7,0,0) + 1.45442 x(7,1,0) + 1.6076 x(7,2,0)
       + 1.52434 x(7,3,0) + 1.3569 x(7,4,0) + 1.6674 x(7,5,0) + 1.4023 x(8,0,0)
       + 1.18472 x(8,1,0) + 1.18886 x(8,2,0) + 1.4023 x(8,3,0)
       + 1.0872 x(8,4,0) + 1.64564 x(8,5,0) + 1.42298 x(9,0,0)
       + 1.70634 x(9,1,0) + 1.3549 x(9,2,0) + 1.42298 x(9,3,0)
       + 1.58352 x(9,4,0) + 1.25094 x(9,5,0) - 0.1771 x(10,0,0)
       - 0.26772 x(10,1,0) - 0.30406 x(10,2,0) - 0.1771 x(10,3,0)
       - 0.36524 x(10,4,0) - 0.31418 x(10,5,0) - 0.31234 x(10,7,0)
       - 0.39974 x(10,8,0) - 0.33028 x(10,9,0) - 0.3979 x(11,0,0)
       - 0.5589 x(11,1,0) - 0.53544 x(11,2,0) - 0.3979 x(11,3,0)
       - 0.65642 x(11,4,0) - 0.12604 x(11,5,0) - 0.65412 x(11,6,0)
       - 0.21666 x(11,8,0) - 0.59754 x(11,9,0) - 0.49312 x(12,0,0)
       - 0.65412 x(12,1,0) - 0.63066 x(12,2,0) - 0.49312 x(12,3,0)
       - 0.75164 x(12,4,0) - 0.207 x(12,5,0) - 0.64952 x(12,6,0)
       - 0.38778 x(12,7,0) - 0.70288 x(12,9,0) - 0.38088 x(13,0,0)
       - 0.14076 x(13,1,0) - 0.42228 x(13,2,0) - 0.38088 x(13,3,0)
       - 0.12052 x(13,4,0) - 0.54832 x(13,5,0) - 0.18768 x(13,6,0)
       - 0.60168 x(13,7,0) - 0.64446 x(13,8,0) - 0.598 x(14,0,0)
       - 0.322 x(14,1,0) - 0.39974 x(14,2,0) - 0.598 x(14,3,0)
       - 0.32568 x(14,4,0) - 0.75854 x(14,5,0) - 0.4324 x(14,6,0)
       - 0.69046 x(14,7,0) - 0.8464 x(14,8,0) - 0.26266 x(14,9,0) + 0 y(15)
       + 21.22695
Subject To
 Constraint1_0:      x(0,1,0) + x(0,2,0) + x(0,3,0) + x(0,4,0) + x(0,5,0)
                     + x(0,6,0) + x(0,7,0) + x(0,8,0) + x(0,9,0) + x(0,10,0)
                     + x(0,11,0) + x(0,12,0) + x(0,13,0) + x(0,15,0)  = 1
 Constraint1_1:      x(1,0,0) + x(1,2,0) + x(1,3,0) + x(1,4,0) + x(1,5,0)
                     + x(1,6,0) + x(1,7,0) + x(1,8,0) + x(1,9,0) + x(1,10,0)
                     + x(1,11,0) + x(1,12,0) + x(1,13,0) + x(1,15,0)  = 1
 Constraint1_2:      x(2,0,0) + x(2,1,0) + x(2,3,0) + x(2,4,0) + x(2,5,0)
                     + x(2,6,0) + x(2,7,0) + x(2,8,0) + x(2,9,0) + x(2,10,0)
                     + x(2,11,0) + x(2,12,0) + x(2,13,0) + x(2,15,0)  = 1
 Constraint1_3:      x(3,0,0) + x(3,1,0) + x(3,2,0) + x(3,4,0) + x(3,5,0)
                     + x(3,6,0) + x(3,7,0) + x(3,8,0) + x(3,9,0) + x(3,10,0)
                     + x(3,11,0) + x(3,12,0) + x(3,13,0) + x(3,15,0)  = 1
 Constraint1_4:      x(4,0,0) + x(4,1,0) + x(4,2,0) + x(4,3,0) + x(4,5,0)
                     + x(4,6,0) + x(4,7,0) + x(4,8,0) + x(4,9,0) + x(4,10,0)
                     + x(4,11,0) + x(4,12,0) + x(4,13,0) + x(4,15,0)  = 1
 Constraint1_5:      x(5,0,0) + x(5,1,0) + x(5,2,0) + x(5,3,0) + x(5,4,0)
                     + x(5,6,0) + x(5,7,0) + x(5,8,0) + x(5,9,0) + x(5,10,0)
                     + x(5,11,0) + x(5,12,0) + x(5,13,0) + x(5,15,0)  = 1
 Constraint2_6:      x(6,0,0) + x(6,1,0) + x(6,2,0) + x(6,3,0) + x(6,4,0)
                     + x(6,5,0) - y(6)  = 0
 Constraint2_7:      x(7,0,0) + x(7,1,0) + x(7,2,0) + x(7,3,0) + x(7,4,0)
                     + x(7,5,0) - y(7)  = 0
 Constraint2_8:      x(8,0,0) + x(8,1,0) + x(8,2,0) + x(8,3,0) + x(8,4,0)
                     + x(8,5,0) - y(8)  = 0
 Constraint2_9:      x(9,0,0) + x(9,1,0) + x(9,2,0) + x(9,3,0) + x(9,4,0)
                     + x(9,5,0) - y(9)  = 0
 Constraint3_6_0:    x(6,0,0) + x(6,1,0) + x(6,2,0) + x(6,3,0) + x(6,4,0)
                     + x(6,5,0) - x(10,0,0) - x(10,1,0) - x(10,2,0) - x(10,3,0)
                     - x(10,4,0) - x(10,5,0) - x(10,7,0) - x(10,8,0)
                     - x(10,9,0) - x(10,15,0)  = 0
 Constraint3_7_0:    x(7,0,0) + x(7,1,0) + x(7,2,0) + x(7,3,0) + x(7,4,0)
                     + x(7,5,0) - x(11,0,0) - x(11,1,0) - x(11,2,0) - x(11,3,0)
                     - x(11,4,0) - x(11,5,0) - x(11,6,0) - x(11,8,0)
                     - x(11,9,0) - x(11,15,0)  = 0
 Constraint3_8_0:    x(8,0,0) + x(8,1,0) + x(8,2,0) + x(8,3,0) + x(8,4,0)
                     + x(8,5,0) - x(12,0,0) - x(12,1,0) - x(12,2,0) - x(12,3,0)
                     - x(12,4,0) - x(12,5,0) - x(12,6,0) - x(12,7,0)
                     - x(12,9,0) - x(12,15,0)  = 0
 Constraint3_9_0:    x(9,0,0) + x(9,1,0) + x(9,2,0) + x(9,3,0) + x(9,4,0)
                     + x(9,5,0) - x(13,0,0) - x(13,1,0) - x(13,2,0) - x(13,3,0)
                     - x(13,4,0) - x(13,5,0) - x(13,6,0) - x(13,7,0)
                     - x(13,8,0) - x(13,15,0)  = 0
 Constraint4_0_0:    x(0,1,0) + x(0,2,0) + x(0,3,0) + x(0,4,0) + x(0,5,0)
                     + x(0,6,0) + x(0,7,0) + x(0,8,0) + x(0,9,0) + x(0,10,0)
                     + x(0,11,0) + x(0,12,0) + x(0,13,0) + x(0,15,0) - x(1,0,0)
                     - x(2,0,0) - x(3,0,0) - x(4,0,0) - x(5,0,0) - x(6,0,0)
                     - x(7,0,0) - x(8,0,0) - x(9,0,0) - x(10,0,0) - x(11,0,0)
                     - x(12,0,0) - x(13,0,0) - x(14,0,0)  = 0
 Constraint4_1_0:    - x(0,1,0) + x(1,0,0) + x(1,2,0) + x(1,3,0) + x(1,4,0)
                     + x(1,5,0) + x(1,6,0) + x(1,7,0) + x(1,8,0) + x(1,9,0)
                     + x(1,10,0) + x(1,11,0) + x(1,12,0) + x(1,13,0)
                     + x(1,15,0) - x(2,1,0) - x(3,1,0) - x(4,1,0) - x(5,1,0)
                     - x(6,1,0) - x(7,1,0) - x(8,1,0) - x(9,1,0) - x(10,1,0)
                     - x(11,1,0) - x(12,1,0) - x(13,1,0) - x(14,1,0)  = 0
 Constraint4_2_0:    - x(0,2,0) - x(1,2,0) + x(2,0,0) + x(2,1,0) + x(2,3,0)
                     + x(2,4,0) + x(2,5,0) + x(2,6,0) + x(2,7,0) + x(2,8,0)
                     + x(2,9,0) + x(2,10,0) + x(2,11,0) + x(2,12,0) + x(2,13,0)
                     + x(2,15,0) - x(3,2,0) - x(4,2,0) - x(5,2,0) - x(6,2,0)
                     - x(7,2,0) - x(8,2,0) - x(9,2,0) - x(10,2,0) - x(11,2,0)
                     - x(12,2,0) - x(13,2,0) - x(14,2,0)  = 0
 Constraint4_3_0:    - x(0,3,0) - x(1,3,0) - x(2,3,0) + x(3,0,0) + x(3,1,0)
                     + x(3,2,0) + x(3,4,0) + x(3,5,0) + x(3,6,0) + x(3,7,0)
                     + x(3,8,0) + x(3,9,0) + x(3,10,0) + x(3,11,0) + x(3,12,0)
                     + x(3,13,0) + x(3,15,0) - x(4,3,0) - x(5,3,0) - x(6,3,0)
                     - x(7,3,0) - x(8,3,0) - x(9,3,0) - x(10,3,0) - x(11,3,0)
                     - x(12,3,0) - x(13,3,0) - x(14,3,0)  = 0
 Constraint4_4_0:    - x(0,4,0) - x(1,4,0) - x(2,4,0) - x(3,4,0) + x(4,0,0)
                     + x(4,1,0) + x(4,2,0) + x(4,3,0) + x(4,5,0) + x(4,6,0)
                     + x(4,7,0) + x(4,8,0) + x(4,9,0) + x(4,10,0) + x(4,11,0)
                     + x(4,12,0) + x(4,13,0) + x(4,15,0) - x(5,4,0) - x(6,4,0)
                     - x(7,4,0) - x(8,4,0) - x(9,4,0) - x(10,4,0) - x(11,4,0)
                     - x(12,4,0) - x(13,4,0) - x(14,4,0)  = 0
 Constraint4_5_0:    - x(0,5,0) - x(1,5,0) - x(2,5,0) - x(3,5,0) - x(4,5,0)
                     + x(5,0,0) + x(5,1,0) + x(5,2,0) + x(5,3,0) + x(5,4,0)
                     + x(5,6,0) + x(5,7,0) + x(5,8,0) + x(5,9,0) + x(5,10,0)
                     + x(5,11,0) + x(5,12,0) + x(5,13,0) + x(5,15,0) - x(6,5,0)
                     - x(7,5,0) - x(8,5,0) - x(9,5,0) - x(10,5,0) - x(11,5,0)
                     - x(12,5,0) - x(13,5,0) - x(14,5,0)  = 0
 Constraint4_6_0:    - x(0,6,0) - x(1,6,0) - x(2,6,0) - x(3,6,0) - x(4,6,0)
                     - x(5,6,0) + x(6,0,0) + x(6,1,0) + x(6,2,0) + x(6,3,0)
                     + x(6,4,0) + x(6,5,0) - x(11,6,0) - x(12,6,0) - x(13,6,0)
                     - x(14,6,0)  = 0
 Constraint4_7_0:    - x(0,7,0) - x(1,7,0) - x(2,7,0) - x(3,7,0) - x(4,7,0)
                     - x(5,7,0) + x(7,0,0) + x(7,1,0) + x(7,2,0) + x(7,3,0)
                     + x(7,4,0) + x(7,5,0) - x(10,7,0) - x(12,7,0) - x(13,7,0)
                     - x(14,7,0)  = 0
 Constraint4_8_0:    - x(0,8,0) - x(1,8,0) - x(2,8,0) - x(3,8,0) - x(4,8,0)
                     - x(5,8,0) + x(8,0,0) + x(8,1,0) + x(8,2,0) + x(8,3,0)
                     + x(8,4,0) + x(8,5,0) - x(10,8,0) - x(11,8,0) - x(13,8,0)
                     - x(14,8,0)  = 0
 Constraint4_9_0:    - x(0,9,0) - x(1,9,0) - x(2,9,0) - x(3,9,0) - x(4,9,0)
                     - x(5,9,0) + x(9,0,0) + x(9,1,0) + x(9,2,0) + x(9,3,0)
                     + x(9,4,0) + x(9,5,0) - x(10,9,0) - x(11,9,0) - x(12,9,0)
                     - x(14,9,0)  = 0
 Constraint4_10_0:   - x(0,10,0) - x(1,10,0) - x(2,10,0) - x(3,10,0)
                     - x(4,10,0) - x(5,10,0) + x(10,0,0) + x(10,1,0)
                     + x(10,2,0) + x(10,3,0) + x(10,4,0) + x(10,5,0)
                     + x(10,7,0) + x(10,8,0) + x(10,9,0) + x(10,15,0)  = 0
 Constraint4_11_0:   - x(0,11,0) - x(1,11,0) - x(2,11,0) - x(3,11,0)
                     - x(4,11,0) - x(5,11,0) + x(11,0,0) + x(11,1,0)
                     + x(11,2,0) + x(11,3,0) + x(11,4,0) + x(11,5,0)
                     + x(11,6,0) + x(11,8,0) + x(11,9,0) + x(11,15,0)  = 0
 Constraint4_12_0:   - x(0,12,0) - x(1,12,0) - x(2,12,0) - x(3,12,0)
                     - x(4,12,0) - x(5,12,0) + x(12,0,0) + x(12,1,0)
                     + x(12,2,0) + x(12,3,0) + x(12,4,0) + x(12,5,0)
                     + x(12,6,0) + x(12,7,0) + x(12,9,0) + x(12,15,0)  = 0
 Constraint4_13_0:   - x(0,13,0) - x(1,13,0) - x(2,13,0) - x(3,13,0)
                     - x(4,13,0) - x(5,13,0) + x(13,0,0) + x(13,1,0)
                     + x(13,2,0) + x(13,3,0) + x(13,4,0) + x(13,5,0)
                     + x(13,6,0) + x(13,7,0) + x(13,8,0) + x(13,15,0)  = 0
 Constraint5_0:      x(14,0,0) + x(14,1,0) + x(14,2,0) + x(14,3,0) + x(14,4,0)
                     + x(14,5,0) + x(14,6,0) + x(14,7,0) + x(14,8,0)
                     + x(14,9,0)  = 1
 Constraint6_0:      x(0,15,0) + x(1,15,0) + x(2,15,0) + x(3,15,0) + x(4,15,0)
                     + x(5,15,0) + x(10,15,0) + x(11,15,0) + x(12,15,0)
                     + x(13,15,0)  = 1
 Constraint7_0:      - 34 y(0) + b(0) <= 0
 Constraint7_1:      - 34 y(1) + b(1) <= 0
 Constraint7_2:      - 34 y(2) + b(2) <= 0
 Constraint7_3:      - 34 y(3) + b(3) <= 0
 Constraint7_4:      - 34 y(4) + b(4) <= 0
 Constraint7_5:      - 34 y(5) + b(5) <= 0
 Constraint7_6:      - 34 y(6) + b(6) <= 0
 Constraint7_7:      - 34 y(7) + b(7) <= 0
 Constraint7_8:      - 34 y(8) + b(8) <= 0
 Constraint7_9:      - 34 y(9) + b(9) <= 0
 Constraint7_10:     - 34 y(10) + b(10) <= 0
 Constraint7_11:     - 34 y(11) + b(11) <= 0
 Constraint7_12:     - 34 y(12) + b(12) <= 0
 Constraint7_13:     - 34 y(13) + b(13) <= 0
 Constraint7_14:     - 34 y(14) + b(14) <= 0
 Constraint8_6:      b(6) - b(10) <= 0
 Constraint8_7:      b(7) - b(11) <= 0
 Constraint8_8:      b(8) - b(12) <= 0
 Constraint8_9:      b(9) - b(13) <= 0
 Constraint9_0_1:    34 x(0,1,0) + b(0) - b(1) <= 33.7735405872193
 Constraint9_0_2:    34 x(0,2,0) + b(0) - b(2) <= 33.7523488773748
 Constraint9_0_3:    34 x(0,3,0) + b(0) - b(3) <= 33.7446804835924
 Constraint9_0_4:    34 x(0,4,0) + b(0) - b(4) <= 33.7655094991364
 Constraint9_0_5:    34 x(0,5,0) + b(0) - b(5) <= 33.7303281519862
 Constraint9_0_6:    34 x(0,6,0) + b(0) - b(6) <= 33.7526597582038
 Constraint9_0_7:    34 x(0,7,0) + b(0) - b(7) <= 33.7299136442142
 Constraint9_0_8:    34 x(0,8,0) + b(0) - b(8) <= 33.717115716753
 Constraint9_0_9:    34 x(0,9,0) + b(0) - b(9) <= 33.7724525043178
 Constraint9_0_10:   34 x(0,10,0) + b(0) - b(10) <= 33.7554058721934
 Constraint9_0_11:   34 x(0,11,0) + b(0) - b(11) <= 33.7214680483592
 Constraint9_0_12:   34 x(0,12,0) + b(0) - b(12) <= 33.7107426597582
 Constraint9_0_13:   34 x(0,13,0) + b(0) - b(13) <= 33.7672711571675
 Constraint9_0_15:   34 x(0,15,0) + b(0) - b(15) <= 33.7879447322971
 Constraint9_1_0:    34 x(1,0,0) - b(0) + b(1) <= 33.7807426597582
 Constraint9_1_2:    34 x(1,2,0) + b(1) - b(2) <= 33.7839032815199
 Constraint9_1_3:    34 x(1,3,0) + b(1) - b(3) <= 33.7803281519862
 Constraint9_1_4:    34 x(1,4,0) + b(1) - b(4) <= 33.7894991364421
 Constraint9_1_5:    34 x(1,5,0) + b(1) - b(5) <= 33.76597582038
 Constraint9_1_6:    34 x(1,6,0) + b(1) - b(6) <= 33.7799136442142
 Constraint9_1_7:    34 x(1,7,0) + b(1) - b(7) <= 33.7655613126079
 Constraint9_1_8:    34 x(1,8,0) + b(1) - b(8) <= 33.7528151986183
 Constraint9_1_9:    34 x(1,9,0) + b(1) - b(9) <= 33.7964421416235
 Constraint9_1_10:   34 x(1,10,0) + b(1) - b(10) <= 33.7908462867012
 Constraint9_1_11:   34 x(1,11,0) + b(1) - b(11) <= 33.757115716753
 Constraint9_1_12:   34 x(1,12,0) + b(1) - b(12) <= 33.746390328152
 Constraint9_1_13:   34 x(1,13,0) + b(1) - b(13) <= 33.7912607944732
 Constraint9_1_15:   34 x(1,15,0) + b(1) - b(15) <= 33.8149395509499
 Constraint9_2_0:    34 x(2,0,0) - b(0) + b(2) <= 33.7808462867012
 Constraint9_2_1:    34 x(2,1,0) - b(1) + b(2) <= 33.7778411053541
 Constraint9_2_3:    34 x(2,3,0) + b(2) - b(3) <= 33.7747841105354
 Constraint9_2_4:    34 x(2,4,0) + b(2) - b(4) <= 33.7697582037997
 Constraint9_2_5:    34 x(2,5,0) + b(2) - b(5) <= 33.7712089810017
 Constraint9_2_6:    34 x(2,6,0) + b(2) - b(6) <= 33.7601727115717
 Constraint9_2_7:    34 x(2,7,0) + b(2) - b(7) <= 33.7847322970639
 Constraint9_2_8:    34 x(2,8,0) + b(2) - b(8) <= 33.7579965457686
 Constraint9_2_9:    34 x(2,9,0) + b(2) - b(9) <= 33.776701208981
 Constraint9_2_10:   34 x(2,10,0) + b(2) - b(10) <= 33.7895509499136
 Constraint9_2_11:   34 x(2,11,0) + b(2) - b(11) <= 33.7622970639033
 Constraint9_2_12:   34 x(2,12,0) + b(2) - b(12) <= 33.7516234887737
 Constraint9_2_13:   34 x(2,13,0) + b(2) - b(13) <= 33.7715198618307
 Constraint9_2_15:   34 x(2,15,0) + b(2) - b(15) <= 33.8199136442142
 Constraint9_3_0:    34 x(3,0,0) - b(0) + b(3) <= 33.8004835924007
 Constraint9_3_1:    34 x(3,1,0) - b(1) + b(3) <= 33.7940069084629
 Constraint9_3_2:    34 x(3,2,0) - b(2) + b(3) <= 33.7705354058722
 Constraint9_3_4:    34 x(3,4,0) + b(3) - b(4) <= 33.787219343696
 Constraint9_3_5:    34 x(3,5,0) + b(3) - b(5) <= 33.7684110535406
 Constraint9_3_6:    34 x(3,6,0) + b(3) - b(6) <= 33.7937996545769
 Constraint9_3_7:    34 x(3,7,0) + b(3) - b(7) <= 33.7612607944732
 Constraint9_3_8:    34 x(3,8,0) + b(3) - b(8) <= 33.7640587219344
 Constraint9_3_9:    34 x(3,9,0) + b(3) - b(9) <= 33.7904317789292
 Constraint9_3_10:   34 x(3,10,0) + b(3) - b(10) <= 33.7918825561313
 Constraint9_3_11:   34 x(3,11,0) + b(3) - b(11) <= 33.7605872193437
 Constraint9_3_12:   34 x(3,12,0) + b(3) - b(12) <= 33.75597582038
 Constraint9_3_13:   34 x(3,13,0) + b(3) - b(13) <= 33.7860276338515
 Constraint9_3_15:   34 x(3,15,0) + b(3) - b(15) <= 33.816908462867
 Constraint9_4_0:    34 x(4,0,0) - b(0) + b(4) <= 33.7607944732297
 Constraint9_4_1:    34 x(4,1,0) - b(1) + b(4) <= 33.786493955095
 Constraint9_4_2:    34 x(4,2,0) - b(2) + b(4) <= 33.7613126079447
 Constraint9_4_3:    34 x(4,3,0) - b(3) + b(4) <= 33.7607944732297
 Constraint9_4_5:    34 x(4,5,0) + b(4) - b(5) <= 33.7432815198618
 Constraint9_4_6:    34 x(4,6,0) + b(4) - b(6) <= 33.7692918825561
 Constraint9_4_7:    34 x(4,7,0) + b(4) - b(7) <= 33.7429188255613
 Constraint9_4_8:    34 x(4,8,0) + b(4) - b(8) <= 33.7301208981002
 Constraint9_4_9:    34 x(4,9,0) + b(4) - b(9) <= 33.7890846286701
 Constraint9_4_10:   34 x(4,10,0) + b(4) - b(10) <= 33.7681519861831
 Constraint9_4_11:   34 x(4,11,0) + b(4) - b(11) <= 33.7344214162349
 Constraint9_4_12:   34 x(4,12,0) + b(4) - b(12) <= 33.7236960276338
 Constraint9_4_13:   34 x(4,13,0) + b(4) - b(13) <= 33.7839032815199
 Constraint9_4_15:   34 x(4,15,0) + b(4) - b(15) <= 33.8015716753022
 Constraint9_5_0:    34 x(5,0,0) - b(0) + b(5) <= 33.7642141623489
 Constraint9_5_1:    34 x(5,1,0) - b(1) + b(5) <= 33.746183074266
 Constraint9_5_2:    34 x(5,2,0) - b(2) + b(5) <= 33.7291364421416
 Constraint9_5_3:    34 x(5,3,0) - b(3) + b(5) <= 33.7642141623489
 Constraint9_5_4:    34 x(5,4,0) - b(4) + b(5) <= 33.7416234887737
 Constraint9_5_6:    34 x(5,6,0) + b(5) - b(6) <= 33.7437996545769
 Constraint9_5_7:    34 x(5,7,0) + b(5) - b(7) <= 33.7287737478411
 Constraint9_5_8:    34 x(5,8,0) + b(5) - b(8) <= 33.7599136442142
 Constraint9_5_9:    34 x(5,9,0) + b(5) - b(9) <= 33.7381519861831
 Constraint9_5_10:   34 x(5,10,0) + b(5) - b(10) <= 33.7542659758204
 Constraint9_5_11:   34 x(5,11,0) + b(5) - b(11) <= 33.745768566494
 Constraint9_5_12:   34 x(5,12,0) + b(5) - b(12) <= 33.7481519861831
 Constraint9_5_13:   34 x(5,13,0) + b(5) - b(13) <= 33.7360276338515
 Constraint9_5_15:   34 x(5,15,0) + b(5) - b(15) <= 33.796286701209
 Constraint9_6_0:    34 x(6,0,0) - b(0) + b(6) <= 33.8782210708117
 Constraint9_6_1:    34 x(6,1,0) - b(1) + b(6) <= 33.8897754749568
 Constraint9_6_2:    34 x(6,2,0) - b(2) + b(6) <= 33.8616407599309
 Constraint9_6_3:    34 x(6,3,0) - b(3) + b(6) <= 33.8782210708117
 Constraint9_6_4:    34 x(6,4,0) - b(4) + b(6) <= 33.8983246977548
 Constraint9_6_5:    34 x(6,5,0) - b(5) + b(6) <= 33.8506044905009
 Constraint9_7_0:    34 x(7,0,0) - b(0) + b(7) <= 33.8677029360967
 Constraint9_7_1:    34 x(7,1,0) - b(1) + b(7) <= 33.8598272884283
 Constraint9_7_2:    34 x(7,2,0) - b(2) + b(7) <= 33.8770811744387
 Constraint9_7_3:    34 x(7,3,0) - b(3) + b(7) <= 33.8677029360967
 Constraint9_7_4:    34 x(7,4,0) - b(4) + b(7) <= 33.8488428324698
 Constraint9_7_5:    34 x(7,5,0) - b(5) + b(7) <= 33.883816925734
 Constraint9_8_0:    34 x(8,0,0) - b(0) + b(8) <= 33.8760967184801
 Constraint9_8_1:    34 x(8,1,0) - b(1) + b(8) <= 33.8515889464594
 Constraint9_8_2:    34 x(8,2,0) - b(2) + b(8) <= 33.8520552677029
 Constraint9_8_3:    34 x(8,3,0) - b(3) + b(8) <= 33.8760967184801
 Constraint9_8_4:    34 x(8,4,0) - b(4) + b(8) <= 33.8406044905009
 Constraint9_8_5:    34 x(8,5,0) - b(5) + b(8) <= 33.903506044905
 Constraint9_9_0:    34 x(9,0,0) - b(0) + b(9) <= 33.8748531951641
 Constraint9_9_1:    34 x(9,1,0) - b(1) + b(9) <= 33.9067702936097
 Constraint9_9_2:    34 x(9,2,0) - b(2) + b(9) <= 33.8671848013817
 Constraint9_9_3:    34 x(9,3,0) - b(3) + b(9) <= 33.8748531951641
 Constraint9_9_4:    34 x(9,4,0) - b(4) + b(9) <= 33.8929360967185
 Constraint9_9_5:    34 x(9,5,0) - b(5) + b(9) <= 33.8554749568221
 Constraint9_10_0:   34 x(10,0,0) - b(0) + b(10) <= 33.8967184801382
 Constraint9_10_1:   34 x(10,1,0) - b(1) + b(10) <= 33.8865112262522
 Constraint9_10_2:   34 x(10,2,0) - b(2) + b(10) <= 33.8824179620035
 Constraint9_10_3:   34 x(10,3,0) - b(3) + b(10) <= 33.8967184801382
 Constraint9_10_4:   34 x(10,4,0) - b(4) + b(10) <= 33.8755267702936
 Constraint9_10_5:   34 x(10,5,0) - b(5) + b(10) <= 33.8812780656304
 Constraint9_10_7:   34 x(10,7,0) - b(7) + b(10) <= 33.8814853195164
 Constraint9_10_8:   34 x(10,8,0) - b(8) + b(10) <= 33.8716407599309
 Constraint9_10_9:   34 x(10,9,0) - b(9) + b(10) <= 33.8794645941278
 Constraint9_10_15:  34 x(10,15,0) + b(10) - b(15) <= 33.9166666666667
 Constraint9_11_0:   34 x(11,0,0) - b(0) + b(11) <= 33.8718480138169
 Constraint9_11_1:   34 x(11,1,0) - b(1) + b(11) <= 33.853713298791
 Constraint9_11_2:   34 x(11,2,0) - b(2) + b(11) <= 33.8563557858376
 Constraint9_11_3:   34 x(11,3,0) - b(3) + b(11) <= 33.8718480138169
 Constraint9_11_4:   34 x(11,4,0) - b(4) + b(11) <= 33.8427288428325
 Constraint9_11_5:   34 x(11,5,0) - b(5) + b(11) <= 33.902469775475
 Constraint9_11_6:   34 x(11,6,0) - b(6) + b(11) <= 33.84298791019
 Constraint9_11_8:   34 x(11,8,0) - b(8) + b(11) <= 33.8922625215889
 Constraint9_11_9:   34 x(11,9,0) - b(9) + b(11) <= 33.8493609671848
 Constraint9_11_15:  34 x(11,15,0) + b(11) - b(15) <= 33.9166666666667
 Constraint9_12_0:   34 x(12,0,0) - b(0) + b(12) <= 33.8611226252159
 Constraint9_12_1:   34 x(12,1,0) - b(1) + b(12) <= 33.84298791019
 Constraint9_12_2:   34 x(12,2,0) - b(2) + b(12) <= 33.8456303972366
 Constraint9_12_3:   34 x(12,3,0) - b(3) + b(12) <= 33.8611226252159
 Constraint9_12_4:   34 x(12,4,0) - b(4) + b(12) <= 33.8320034542314
 Constraint9_12_5:   34 x(12,5,0) - b(5) + b(12) <= 33.8933506044905
 Constraint9_12_6:   34 x(12,6,0) - b(6) + b(12) <= 33.843506044905
 Constraint9_12_7:   34 x(12,7,0) - b(7) + b(12) <= 33.87298791019
 Constraint9_12_9:   34 x(12,9,0) - b(9) + b(12) <= 33.8374956822107
 Constraint9_12_15:  34 x(12,15,0) + b(12) - b(15) <= 33.9166666666667
 Constraint9_13_0:   34 x(13,0,0) - b(0) + b(13) <= 33.8737651122625
 Constraint9_13_1:   34 x(13,1,0) - b(1) + b(13) <= 33.9008117443869
 Constraint9_13_2:   34 x(13,2,0) - b(2) + b(13) <= 33.8691018998273
 Constraint9_13_3:   34 x(13,3,0) - b(3) + b(13) <= 33.8737651122625
 Constraint9_13_4:   34 x(13,4,0) - b(4) + b(13) <= 33.903091537133
 Constraint9_13_5:   34 x(13,5,0) - b(5) + b(13) <= 33.8549050086356
 Constraint9_13_6:   34 x(13,6,0) - b(6) + b(13) <= 33.8955267702936
 Constraint9_13_7:   34 x(13,7,0) - b(7) + b(13) <= 33.8488946459413
 Constraint9_13_8:   34 x(13,8,0) - b(8) + b(13) <= 33.8440759930915
 Constraint9_13_15:  34 x(13,15,0) + b(13) - b(15) <= 33.9166666666667
 Constraint9_14_0:   34 x(14,0,0) - b(0) + b(14) <= 33.9326424870466
 Constraint9_14_1:   34 x(14,1,0) - b(1) + b(14) <= 33.9637305699482
 Constraint9_14_2:   34 x(14,2,0) - b(2) + b(14) <= 33.9549740932642
 Constraint9_14_3:   34 x(14,3,0) - b(3) + b(14) <= 33.9326424870466
 Constraint9_14_4:   34 x(14,4,0) - b(4) + b(14) <= 33.9633160621762
 Constraint9_14_5:   34 x(14,5,0) - b(5) + b(14) <= 33.9145595854922
 Constraint9_14_6:   34 x(14,6,0) - b(6) + b(14) <= 33.9512953367876
 Constraint9_14_7:   34 x(14,7,0) - b(7) + b(14) <= 33.9222279792746
 Constraint9_14_8:   34 x(14,8,0) - b(8) + b(14) <= 33.9046632124352
 Constraint9_14_9:   34 x(14,9,0) - b(9) + b(14) <= 33.970414507772
 Constraint10_0_1:   - 5 x(0,1,0) - w(0) + w(1) >= -5
 Constraint10_0_2:   - 5 x(0,2,0) - w(0) + w(2) >= -5
 Constraint10_0_3:   - 5 x(0,3,0) - w(0) + w(3) >= -5
 Constraint10_0_4:   - 5 x(0,4,0) - w(0) + w(4) >= -5
 Constraint10_0_5:   - 5 x(0,5,0) - w(0) + w(5) >= -5
 Constraint10_0_6:   - 5 x(0,6,0) - w(0) + w(6) >= -4
 Constraint10_0_7:   - 5 x(0,7,0) - w(0) + w(7) >= -4
 Constraint10_0_8:   - 5 x(0,8,0) - w(0) + w(8) >= -4
 Constraint10_0_9:   - 5 x(0,9,0) - w(0) + w(9) >= -4
 Constraint10_0_10:  - 5 x(0,10,0) - w(0) + w(10) >= -6
 Constraint10_0_11:  - 5 x(0,11,0) - w(0) + w(11) >= -6
 Constraint10_0_12:  - 5 x(0,12,0) - w(0) + w(12) >= -6
 Constraint10_0_13:  - 5 x(0,13,0) - w(0) + w(13) >= -6
 Constraint10_0_15:  - 5 x(0,15,0) - w(0) + w(15) >= -5
 Constraint10_1_0:   - 5 x(1,0,0) + w(0) - w(1) >= -5
 Constraint10_1_2:   - 5 x(1,2,0) - w(1) + w(2) >= -5
 Constraint10_1_3:   - 5 x(1,3,0) - w(1) + w(3) >= -5
 Constraint10_1_4:   - 5 x(1,4,0) - w(1) + w(4) >= -5
 Constraint10_1_5:   - 5 x(1,5,0) - w(1) + w(5) >= -5
 Constraint10_1_6:   - 5 x(1,6,0) - w(1) + w(6) >= -4
 Constraint10_1_7:   - 5 x(1,7,0) - w(1) + w(7) >= -4
 Constraint10_1_8:   - 5 x(1,8,0) - w(1) + w(8) >= -4
 Constraint10_1_9:   - 5 x(1,9,0) - w(1) + w(9) >= -4
 Constraint10_1_10:  - 5 x(1,10,0) - w(1) + w(10) >= -6
 Constraint10_1_11:  - 5 x(1,11,0) - w(1) + w(11) >= -6
 Constraint10_1_12:  - 5 x(1,12,0) - w(1) + w(12) >= -6
 Constraint10_1_13:  - 5 x(1,13,0) - w(1) + w(13) >= -6
 Constraint10_1_15:  - 5 x(1,15,0) - w(1) + w(15) >= -5
 Constraint10_2_0:   - 5 x(2,0,0) + w(0) - w(2) >= -5
 Constraint10_2_1:   - 5 x(2,1,0) + w(1) - w(2) >= -5
 Constraint10_2_3:   - 5 x(2,3,0) - w(2) + w(3) >= -5
 Constraint10_2_4:   - 5 x(2,4,0) - w(2) + w(4) >= -5
 Constraint10_2_5:   - 5 x(2,5,0) - w(2) + w(5) >= -5
 Constraint10_2_6:   - 5 x(2,6,0) - w(2) + w(6) >= -4
 Constraint10_2_7:   - 5 x(2,7,0) - w(2) + w(7) >= -4
 Constraint10_2_8:   - 5 x(2,8,0) - w(2) + w(8) >= -4
 Constraint10_2_9:   - 5 x(2,9,0) - w(2) + w(9) >= -4
 Constraint10_2_10:  - 5 x(2,10,0) - w(2) + w(10) >= -6
 Constraint10_2_11:  - 5 x(2,11,0) - w(2) + w(11) >= -6
 Constraint10_2_12:  - 5 x(2,12,0) - w(2) + w(12) >= -6
 Constraint10_2_13:  - 5 x(2,13,0) - w(2) + w(13) >= -6
 Constraint10_2_15:  - 5 x(2,15,0) - w(2) + w(15) >= -5
 Constraint10_3_0:   - 5 x(3,0,0) + w(0) - w(3) >= -5
 Constraint10_3_1:   - 5 x(3,1,0) + w(1) - w(3) >= -5
 Constraint10_3_2:   - 5 x(3,2,0) + w(2) - w(3) >= -5
 Constraint10_3_4:   - 5 x(3,4,0) - w(3) + w(4) >= -5
 Constraint10_3_5:   - 5 x(3,5,0) - w(3) + w(5) >= -5
 Constraint10_3_6:   - 5 x(3,6,0) - w(3) + w(6) >= -4
 Constraint10_3_7:   - 5 x(3,7,0) - w(3) + w(7) >= -4
 Constraint10_3_8:   - 5 x(3,8,0) - w(3) + w(8) >= -4
 Constraint10_3_9:   - 5 x(3,9,0) - w(3) + w(9) >= -4
 Constraint10_3_10:  - 5 x(3,10,0) - w(3) + w(10) >= -6
 Constraint10_3_11:  - 5 x(3,11,0) - w(3) + w(11) >= -6
 Constraint10_3_12:  - 5 x(3,12,0) - w(3) + w(12) >= -6
 Constraint10_3_13:  - 5 x(3,13,0) - w(3) + w(13) >= -6
 Constraint10_3_15:  - 5 x(3,15,0) - w(3) + w(15) >= -5
 Constraint10_4_0:   - 5 x(4,0,0) + w(0) - w(4) >= -5
 Constraint10_4_1:   - 5 x(4,1,0) + w(1) - w(4) >= -5
 Constraint10_4_2:   - 5 x(4,2,0) + w(2) - w(4) >= -5
 Constraint10_4_3:   - 5 x(4,3,0) + w(3) - w(4) >= -5
 Constraint10_4_5:   - 5 x(4,5,0) - w(4) + w(5) >= -5
 Constraint10_4_6:   - 5 x(4,6,0) - w(4) + w(6) >= -4
 Constraint10_4_7:   - 5 x(4,7,0) - w(4) + w(7) >= -4
 Constraint10_4_8:   - 5 x(4,8,0) - w(4) + w(8) >= -4
 Constraint10_4_9:   - 5 x(4,9,0) - w(4) + w(9) >= -4
 Constraint10_4_10:  - 5 x(4,10,0) - w(4) + w(10) >= -6
 Constraint10_4_11:  - 5 x(4,11,0) - w(4) + w(11) >= -6
 Constraint10_4_12:  - 5 x(4,12,0) - w(4) + w(12) >= -6
 Constraint10_4_13:  - 5 x(4,13,0) - w(4) + w(13) >= -6
 Constraint10_4_15:  - 5 x(4,15,0) - w(4) + w(15) >= -5
 Constraint10_5_0:   - 5 x(5,0,0) + w(0) - w(5) >= -5
 Constraint10_5_1:   - 5 x(5,1,0) + w(1) - w(5) >= -5
 Constraint10_5_2:   - 5 x(5,2,0) + w(2) - w(5) >= -5
 Constraint10_5_3:   - 5 x(5,3,0) + w(3) - w(5) >= -5
 Constraint10_5_4:   - 5 x(5,4,0) + w(4) - w(5) >= -5
 Constraint10_5_6:   - 5 x(5,6,0) - w(5) + w(6) >= -4
 Constraint10_5_7:   - 5 x(5,7,0) - w(5) + w(7) >= -4
 Constraint10_5_8:   - 5 x(5,8,0) - w(5) + w(8) >= -4
 Constraint10_5_9:   - 5 x(5,9,0) - w(5) + w(9) >= -4
 Constraint10_5_10:  - 5 x(5,10,0) - w(5) + w(10) >= -6
 Constraint10_5_11:  - 5 x(5,11,0) - w(5) + w(11) >= -6
 Constraint10_5_12:  - 5 x(5,12,0) - w(5) + w(12) >= -6
 Constraint10_5_13:  - 5 x(5,13,0) - w(5) + w(13) >= -6
 Constraint10_5_15:  - 5 x(5,15,0) - w(5) + w(15) >= -5
 Constraint10_6_0:   - 5 x(6,0,0) + w(0) - w(6) >= -5
 Constraint10_6_1:   - 5 x(6,1,0) + w(1) - w(6) >= -5
 Constraint10_6_2:   - 5 x(6,2,0) + w(2) - w(6) >= -5
 Constraint10_6_3:   - 5 x(6,3,0) + w(3) - w(6) >= -5
 Constraint10_6_4:   - 5 x(6,4,0) + w(4) - w(6) >= -5
 Constraint10_6_5:   - 5 x(6,5,0) + w(5) - w(6) >= -5
 Constraint10_7_0:   - 5 x(7,0,0) + w(0) - w(7) >= -5
 Constraint10_7_1:   - 5 x(7,1,0) + w(1) - w(7) >= -5
 Constraint10_7_2:   - 5 x(7,2,0) + w(2) - w(7) >= -5
 Constraint10_7_3:   - 5 x(7,3,0) + w(3) - w(7) >= -5
 Constraint10_7_4:   - 5 x(7,4,0) + w(4) - w(7) >= -5
 Constraint10_7_5:   - 5 x(7,5,0) + w(5) - w(7) >= -5
 Constraint10_8_0:   - 5 x(8,0,0) + w(0) - w(8) >= -5
 Constraint10_8_1:   - 5 x(8,1,0) + w(1) - w(8) >= -5
 Constraint10_8_2:   - 5 x(8,2,0) + w(2) - w(8) >= -5
 Constraint10_8_3:   - 5 x(8,3,0) + w(3) - w(8) >= -5
 Constraint10_8_4:   - 5 x(8,4,0) + w(4) - w(8) >= -5
 Constraint10_8_5:   - 5 x(8,5,0) + w(5) - w(8) >= -5
 Constraint10_9_0:   - 5 x(9,0,0) + w(0) - w(9) >= -5
 Constraint10_9_1:   - 5 x(9,1,0) + w(1) - w(9) >= -5
 Constraint10_9_2:   - 5 x(9,2,0) + w(2) - w(9) >= -5
 Constraint10_9_3:   - 5 x(9,3,0) + w(3) - w(9) >= -5
 Constraint10_9_4:   - 5 x(9,4,0) + w(4) - w(9) >= -5
 Constraint10_9_5:   - 5 x(9,5,0) + w(5) - w(9) >= -5
 Constraint10_10_0:  - 5 x(10,0,0) + w(0) - w(10) >= -5
 Constraint10_10_1:  - 5 x(10,1,0) + w(1) - w(10) >= -5
 Constraint10_10_2:  - 5 x(10,2,0) + w(2) - w(10) >= -5
 Constraint10_10_3:  - 5 x(10,3,0) + w(3) - w(10) >= -5
 Constraint10_10_4:  - 5 x(10,4,0) + w(4) - w(10) >= -5
 Constraint10_10_5:  - 5 x(10,5,0) + w(5) - w(10) >= -5
 Constraint10_10_7:  - 5 x(10,7,0) + w(7) - w(10) >= -4
 Constraint10_10_8:  - 5 x(10,8,0) + w(8) - w(10) >= -4
 Constraint10_10_9:  - 5 x(10,9,0) + w(9) - w(10) >= -4
 Constraint10_10_15: - 5 x(10,15,0) - w(10) + w(15) >= -5
 Constraint10_11_0:  - 5 x(11,0,0) + w(0) - w(11) >= -5
 Constraint10_11_1:  - 5 x(11,1,0) + w(1) - w(11) >= -5
 Constraint10_11_2:  - 5 x(11,2,0) + w(2) - w(11) >= -5
 Constraint10_11_3:  - 5 x(11,3,0) + w(3) - w(11) >= -5
 Constraint10_11_4:  - 5 x(11,4,0) + w(4) - w(11) >= -5
 Constraint10_11_5:  - 5 x(11,5,0) + w(5) - w(11) >= -5
 Constraint10_11_6:  - 5 x(11,6,0) + w(6) - w(11) >= -4
 Constraint10_11_8:  - 5 x(11,8,0) + w(8) - w(11) >= -4
 Constraint10_11_9:  - 5 x(11,9,0) + w(9) - w(11) >= -4
 Constraint10_11_15: - 5 x(11,15,0) - w(11) + w(15) >= -5
 Constraint10_12_0:  - 5 x(12,0,0) + w(0) - w(12) >= -5
 Constraint10_12_1:  - 5 x(12,1,0) + w(1) - w(12) >= -5
 Constraint10_12_2:  - 5 x(12,2,0) + w(2) - w(12) >= -5
 Constraint10_12_3:  - 5 x(12,3,0) + w(3) - w(12) >= -5
 Constraint10_12_4:  - 5 x(12,4,0) + w(4) - w(12) >= -5
 Constraint10_12_5:  - 5 x(12,5,0) + w(5) - w(12) >= -5
 Constraint10_12_6:  - 5 x(12,6,0) + w(6) - w(12) >= -4
 Constraint10_12_7:  - 5 x(12,7,0) + w(7) - w(12) >= -4
 Constraint10_12_9:  - 5 x(12,9,0) + w(9) - w(12) >= -4
 Constraint10_12_15: - 5 x(12,15,0) - w(12) + w(15) >= -5
 Constraint10_13_0:  - 5 x(13,0,0) + w(0) - w(13) >= -5
 Constraint10_13_1:  - 5 x(13,1,0) + w(1) - w(13) >= -5
 Constraint10_13_2:  - 5 x(13,2,0) + w(2) - w(13) >= -5
 Constraint10_13_3:  - 5 x(13,3,0) + w(3) - w(13) >= -5
 Constraint10_13_4:  - 5 x(13,4,0) + w(4) - w(13) >= -5
 Constraint10_13_5:  - 5 x(13,5,0) + w(5) - w(13) >= -5
 Constraint10_13_6:  - 5 x(13,6,0) + w(6) - w(13) >= -4
 Constraint10_13_7:  - 5 x(13,7,0) + w(7) - w(13) >= -4
 Constraint10_13_8:  - 5 x(13,8,0) + w(8) - w(13) >= -4
 Constraint10_13_15: - 5 x(13,15,0) - w(13) + w(15) >= -5
 Constraint10_14_0:  - 5 x(14,0,0) + w(0) - w(14) >= -5
 Constraint10_14_1:  - 5 x(14,1,0) + w(1) - w(14) >= -5
 Constraint10_14_2:  - 5 x(14,2,0) + w(2) - w(14) >= -5
 Constraint10_14_3:  - 5 x(14,3,0) + w(3) - w(14) >= -5
 Constraint10_14_4:  - 5 x(14,4,0) + w(4) - w(14) >= -5
 Constraint10_14_5:  - 5 x(14,5,0) + w(5) - w(14) >= -5
 Constraint10_14_6:  - 5 x(14,6,0) + w(6) - w(14) >= -4
 Constraint10_14_7:  - 5 x(14,7,0) + w(7) - w(14) >= -4
 Constraint10_14_8:  - 5 x(14,8,0) + w(8) - w(14) >= -4
 Constraint10_14_9:  - 5 x(14,9,0) + w(9) - w(14) >= -4
 Constraint11_0_0:   b(0) <= 11.9
 Constraint12_0_0:   b(0) >= 11.9
 Constraint11_1_0:   b(1) <= 15.9833333333333
 Constraint12_1_0:   b(1) >= 15.9833333333333
 Constraint11_2_0:   b(2) <= 10.25
 Constraint12_2_0:   b(2) >= 10.25
 Constraint11_3_0:   b(3) <= 11.45
 Constraint12_3_0:   b(3) >= 11.45
 Constraint11_4_0:   b(4) <= 16.6666666666667
 Constraint12_4_0:   b(4) >= 16.6666666666667
 Constraint11_5_0:   b(5) <= 9.35
 Constraint12_5_0:   b(5) >= 9.35
 Constraint11_6_0:   b(6) <= 17
 Constraint12_6_0:   b(6) >= 0
 Constraint11_7_0:   b(7) <= 17
 Constraint12_7_0:   b(7) >= 0
 Constraint11_8_0:   b(8) <= 17
 Constraint12_8_0:   b(8) >= 0
 Constraint11_9_0:   b(9) <= 17
 Constraint12_9_0:   b(9) >= 0
 Constraint11_10_0:  b(10) <= 17
 Constraint12_10_0:  b(10) >= 0
 Constraint11_11_0:  b(11) <= 17
 Constraint12_11_0:  b(11) >= 0
 Constraint11_12_0:  b(12) <= 17
 Constraint12_12_0:  b(12) >= 0
 Constraint11_13_0:  b(13) <= 17
 Constraint12_13_0:  b(13) >= 0
 Constraint11_14_0:  b(14) <= 17
 Constraint12_14_0:  b(14) >= 9
 Constraint11_15_0:  b(15) <= 17
 Constraint12_15_0:  b(15) >= 9
 Constraint14:       w(15)  = 0
Bounds
 0 <= x(0,1,0) <= 1
 0 <= x(0,2,0) <= 1
 0 <= x(0,3,0) <= 1
 0 <= x(0,4,0) <= 1
 0 <= x(0,5,0) <= 1
 0 <= x(0,6,0) <= 1
 0 <= x(0,7,0) <= 1
 0 <= x(0,8,0) <= 1
 0 <= x(0,9,0) <= 1
 0 <= x(0,10,0) <= 1
 0 <= x(0,11,0) <= 1
 0 <= x(0,12,0) <= 1
 0 <= x(0,13,0) <= 1
 0 <= x(0,15,0) <= 1
 0 <= x(1,0,0) <= 1
 0 <= x(1,2,0) <= 1
 0 <= x(1,3,0) <= 1
 0 <= x(1,4,0) <= 1
 0 <= x(1,5,0) <= 1
 0 <= x(1,6,0) <= 1
 0 <= x(1,7,0) <= 1
 0 <= x(1,8,0) <= 1
 0 <= x(1,9,0) <= 1
 0 <= x(1,10,0) <= 1
 0 <= x(1,11,0) <= 1
 0 <= x(1,12,0) <= 1
 0 <= x(1,13,0) <= 1
 0 <= x(1,15,0) <= 1
 0 <= x(2,0,0) <= 1
 0 <= x(2,1,0) <= 1
 0 <= x(2,3,0) <= 1
 0 <= x(2,4,0) <= 1
 0 <= x(2,5,0) <= 1
 0 <= x(2,6,0) <= 1
 0 <= x(2,7,0) <= 1
 0 <= x(2,8,0) <= 1
 0 <= x(2,9,0) <= 1
 0 <= x(2,10,0) <= 1
 0 <= x(2,11,0) <= 1
 0 <= x(2,12,0) <= 1
 0 <= x(2,13,0) <= 1
 0 <= x(2,15,0) <= 1
 0 <= x(3,0,0) <= 1
 0 <= x(3,1,0) <= 1
 0 <= x(3,2,0) <= 1
 0 <= x(3,4,0) <= 1
 0 <= x(3,5,0) <= 1
 0 <= x(3,6,0) <= 1
 0 <= x(3,7,0) <= 1
 0 <= x(3,8,0) <= 1
 0 <= x(3,9,0) <= 1
 0 <= x(3,10,0) <= 1
 0 <= x(3,11,0) <= 1
 0 <= x(3,12,0) <= 1
 0 <= x(3,13,0) <= 1
 0 <= x(3,15,0) <= 1
 0 <= x(4,0,0) <= 1
 0 <= x(4,1,0) <= 1
 0 <= x(4,2,0) <= 1
 0 <= x(4,3,0) <= 1
 0 <= x(4,5,0) <= 1
 0 <= x(4,6,0) <= 1
 0 <= x(4,7,0) <= 1
 0 <= x(4,8,0) <= 1
 0 <= x(4,9,0) <= 1
 0 <= x(4,10,0) <= 1
 0 <= x(4,11,0) <= 1
 0 <= x(4,12,0) <= 1
 0 <= x(4,13,0) <= 1
 0 <= x(4,15,0) <= 1
 0 <= x(5,0,0) <= 1
 0 <= x(5,1,0) <= 1
 0 <= x(5,2,0) <= 1
 0 <= x(5,3,0) <= 1
 0 <= x(5,4,0) <= 1
 0 <= x(5,6,0) <= 1
 0 <= x(5,7,0) <= 1
 0 <= x(5,8,0) <= 1
 0 <= x(5,9,0) <= 1
 0 <= x(5,10,0) <= 1
 0 <= x(5,11,0) <= 1
 0 <= x(5,12,0) <= 1
 0 <= x(5,13,0) <= 1
 0 <= x(5,15,0) <= 1
 0 <= x(6,0,0) <= 1
 0 <= x(6,1,0) <= 1
 0 <= x(6,2,0) <= 1
 0 <= x(6,3,0) <= 1
 0 <= x(6,4,0) <= 1
 0 <= x(6,5,0) <= 1
 0 <= x(7,0,0) <= 1
 0 <= x(7,1,0) <= 1
 0 <= x(7,2,0) <= 1
 0 <= x(7,3,0) <= 1
 0 <= x(7,4,0) <= 1
 0 <= x(7,5,0) <= 1
 0 <= x(8,0,0) <= 1
 0 <= x(8,1,0) <= 1
 0 <= x(8,2,0) <= 1
 0 <= x(8,3,0) <= 1
 0 <= x(8,4,0) <= 1
 0 <= x(8,5,0) <= 1
 0 <= x(9,0,0) <= 1
 0 <= x(9,1,0) <= 1
 0 <= x(9,2,0) <= 1
 0 <= x(9,3,0) <= 1
 0 <= x(9,4,0) <= 1
 0 <= x(9,5,0) <= 1
 0 <= x(10,0,0) <= 1
 0 <= x(10,1,0) <= 1
 0 <= x(10,2,0) <= 1
 0 <= x(10,3,0) <= 1
 0 <= x(10,4,0) <= 1
 0 <= x(10,5,0) <= 1
 0 <= x(10,7,0) <= 1
 0 <= x(10,8,0) <= 1
 0 <= x(10,9,0) <= 1
 0 <= x(10,15,0) <= 1
 0 <= x(11,0,0) <= 1
 0 <= x(11,1,0) <= 1
 0 <= x(11,2,0) <= 1
 0 <= x(11,3,0) <= 1
 0 <= x(11,4,0) <= 1
 0 <= x(11,5,0) <= 1
 0 <= x(11,6,0) <= 1
 0 <= x(11,8,0) <= 1
 0 <= x(11,9,0) <= 1
 0 <= x(11,15,0) <= 1
 0 <= x(12,0,0) <= 1
 0 <= x(12,1,0) <= 1
 0 <= x(12,2,0) <= 1
 0 <= x(12,3,0) <= 1
 0 <= x(12,4,0) <= 1
 0 <= x(12,5,0) <= 1
 0 <= x(12,6,0) <= 1
 0 <= x(12,7,0) <= 1
 0 <= x(12,9,0) <= 1
 0 <= x(12,15,0) <= 1
 0 <= x(13,0,0) <= 1
 0 <= x(13,1,0) <= 1
 0 <= x(13,2,0) <= 1
 0 <= x(13,3,0) <= 1
 0 <= x(13,4,0) <= 1
 0 <= x(13,5,0) <= 1
 0 <= x(13,6,0) <= 1
 0 <= x(13,7,0) <= 1
 0 <= x(13,8,0) <= 1
 0 <= x(13,15,0) <= 1
 0 <= x(14,0,0) <= 1
 0 <= x(14,1,0) <= 1
 0 <= x(14,2,0) <= 1
 0 <= x(14,3,0) <= 1
 0 <= x(14,4,0) <= 1
 0 <= x(14,5,0) <= 1
 0 <= x(14,6,0) <= 1
 0 <= x(14,7,0) <= 1
 0 <= x(14,8,0) <= 1
 0 <= x(14,9,0) <= 1
 0 <= y(0) <= 1
 0 <= y(1) <= 1
 0 <= y(2) <= 1
 0 <= y(3) <= 1
 0 <= y(4) <= 1
 0 <= y(5) <= 1
 0 <= y(6) <= 1
 0 <= y(7) <= 1
 0 <= y(8) <= 1
 0 <= y(9) <= 1
 0 <= y(10) <= 1
 0 <= y(11) <= 1
 0 <= y(12) <= 1
 0 <= y(13) <= 1
 0 <= y(14) <= 1
 0 <= y(15) <= 1
 0 <= b(0) <= 17
 0 <= b(1) <= 17
 0 <= b(2) <= 17
 0 <= b(3) <= 17
 0 <= b(4) <= 17
 0 <= b(5) <= 17
 0 <= b(6) <= 17
 0 <= b(7) <= 17
 0 <= b(8) <= 17
 0 <= b(9) <= 17
 0 <= b(10) <= 17
 0 <= b(11) <= 17
 0 <= b(12) <= 17
 0 <= b(13) <= 17
 0 <= b(14) <= 17
 0 <= b(15) <= 17
 0 <= w(0) <= 1
 0 <= w(1) <= 1
 0 <= w(2) <= 1
 0 <= w(3) <= 1
 0 <= w(4) <= 1
 0 <= w(5) <= 1
 0 <= w(6) <= 1
 0 <= w(7) <= 1
 0 <= w(8) <= 1
 0 <= w(9) <= 1
 0 <= w(10) <= 1
 0 <= w(11) <= 1
 0 <= w(12) <= 1
 0 <= w(13) <= 1
 0 <= w(14) <= 1
 0 <= w(15) <= 1
Binaries
 x(0,1,0)  x(0,2,0)  x(0,3,0)  x(0,4,0)  x(0,5,0)  x(0,6,0)  x(0,7,0) 
 x(0,8,0)  x(0,9,0)  x(0,10,0)  x(0,11,0)  x(0,12,0)  x(0,13,0)  x(0,15,0) 
 x(1,0,0)  x(1,2,0)  x(1,3,0)  x(1,4,0)  x(1,5,0)  x(1,6,0)  x(1,7,0) 
 x(1,8,0)  x(1,9,0)  x(1,10,0)  x(1,11,0)  x(1,12,0)  x(1,13,0)  x(1,15,0) 
 x(2,0,0)  x(2,1,0)  x(2,3,0)  x(2,4,0)  x(2,5,0)  x(2,6,0)  x(2,7,0) 
 x(2,8,0)  x(2,9,0)  x(2,10,0)  x(2,11,0)  x(2,12,0)  x(2,13,0)  x(2,15,0) 
 x(3,0,0)  x(3,1,0)  x(3,2,0)  x(3,4,0)  x(3,5,0)  x(3,6,0)  x(3,7,0) 
 x(3,8,0)  x(3,9,0)  x(3,10,0)  x(3,11,0)  x(3,12,0)  x(3,13,0)  x(3,15,0) 
 x(4,0,0)  x(4,1,0)  x(4,2,0)  x(4,3,0)  x(4,5,0)  x(4,6,0)  x(4,7,0) 
 x(4,8,0)  x(4,9,0)  x(4,10,0)  x(4,11,0)  x(4,12,0)  x(4,13,0)  x(4,15,0) 
 x(5,0,0)  x(5,1,0)  x(5,2,0)  x(5,3,0)  x(5,4,0)  x(5,6,0)  x(5,7,0) 
 x(5,8,0)  x(5,9,0)  x(5,10,0)  x(5,11,0)  x(5,12,0)  x(5,13,0)  x(5,15,0) 
 x(6,0,0)  x(6,1,0)  x(6,2,0)  x(6,3,0)  x(6,4,0)  x(6,5,0)  x(7,0,0) 
 x(7,1,0)  x(7,2,0)  x(7,3,0)  x(7,4,0)  x(7,5,0)  x(8,0,0)  x(8,1,0) 
 x(8,2,0)  x(8,3,0)  x(8,4,0)  x(8,5,0)  x(9,0,0)  x(9,1,0)  x(9,2,0) 
 x(9,3,0)  x(9,4,0)  x(9,5,0)  x(10,0,0)  x(10,1,0)  x(10,2,0)  x(10,3,0) 
 x(10,4,0)  x(10,5,0)  x(10,7,0)  x(10,8,0)  x(10,9,0)  x(10,15,0)  x(11,0,0) 
 x(11,1,0)  x(11,2,0)  x(11,3,0)  x(11,4,0)  x(11,5,0)  x(11,6,0)  x(11,8,0) 
 x(11,9,0)  x(11,15,0)  x(12,0,0)  x(12,1,0)  x(12,2,0)  x(12,3,0)  x(12,4,0) 
 x(12,5,0)  x(12,6,0)  x(12,7,0)  x(12,9,0)  x(12,15,0)  x(13,0,0)  x(13,1,0) 
 x(13,2,0)  x(13,3,0)  x(13,4,0)  x(13,5,0)  x(13,6,0)  x(13,7,0)  x(13,8,0) 
 x(13,15,0)  x(14,0,0)  x(14,1,0)  x(14,2,0)  x(14,3,0)  x(14,4,0)  x(14,5,0) 
 x(14,6,0)  x(14,7,0)  x(14,8,0)  x(14,9,0)  y(0)  y(1)  y(2)  y(3)  y(4) 
 y(5)  y(6)  y(7)  y(8)  y(9)  y(10)  y(11)  y(12)  y(13)  y(14)  y(15) 
End
